c Generated map
c Size: 30 * 30, weights in range: 1 to 10, walls: True, with ratio 0.05
c dim 1 of 3
c
p sp 900 1571
c graph contains 900 nodes and 1571 arcs
c
a 1 31 7
a 31 1 7
a 1 2 6
a 2 1 6
a 2 32 9
a 32 2 9
a 2 3 2
a 3 2 2
a 3 33 10
a 33 3 10
a 3 4 10
a 4 3 10
a 4 34 9
a 34 4 9
a 4 5 3
a 5 4 3
a 5 35 5
a 35 5 5
a 5 6 10
a 6 5 10
a 6 36 1
a 36 6 1
a 6 7 2
a 7 6 2
a 7 37 4
a 37 7 4
a 7 8 4
a 8 7 4
a 8 38 3
a 38 8 3
a 8 9 8
a 9 8 8
a 9 39 8
a 39 9 8
a 9 10 6
a 10 9 6
a 10 40 2
a 40 10 2
a 10 11 2
a 11 10 2
a 11 41 10
a 41 11 10
a 11 12 2
a 12 11 2
a 12 42 4
a 42 12 4
a 14 44 6
a 44 14 6
a 14 15 3
a 15 14 3
a 15 45 5
a 45 15 5
a 15 16 6
a 16 15 6
a 16 46 10
a 46 16 10
a 16 17 2
a 17 16 2
a 17 47 7
a 47 17 7
a 17 18 10
a 18 17 10
a 18 48 10
a 48 18 10
a 18 19 10
a 19 18 10
a 19 49 1
a 49 19 1
a 19 20 5
a 20 19 5
a 20 50 9
a 50 20 9
a 20 21 5
a 21 20 5
a 21 51 3
a 51 21 3
a 23 53 10
a 53 23 10
a 23 24 10
a 24 23 10
a 24 54 9
a 54 24 9
a 24 25 4
a 25 24 4
a 25 26 2
a 26 25 2
a 26 56 4
a 56 26 4
a 26 27 7
a 27 26 7
a 27 57 10
a 57 27 10
a 27 28 6
a 28 27 6
a 28 58 5
a 58 28 5
a 28 29 6
a 29 28 6
a 29 59 10
a 59 29 10
a 29 30 6
a 30 29 6
a 30 60 1
a 60 30 1
a 31 61 9
a 61 31 9
a 31 32 10
a 32 31 10
a 32 62 8
a 62 32 8
a 32 33 3
a 33 32 3
a 33 63 5
a 63 33 5
a 33 34 5
a 34 33 5
a 34 64 3
a 64 34 3
a 34 35 7
a 35 34 7
a 35 65 10
a 65 35 10
a 35 36 5
a 36 35 5
a 36 37 4
a 37 36 4
a 37 67 1
a 67 37 1
a 37 38 8
a 38 37 8
a 38 68 7
a 68 38 7
a 38 39 2
a 39 38 2
a 39 69 6
a 69 39 6
a 39 40 5
a 40 39 5
a 40 70 2
a 70 40 2
a 40 41 8
a 41 40 8
a 41 71 7
a 71 41 7
a 41 42 10
a 42 41 10
a 42 72 7
a 72 42 7
a 42 43 5
a 43 42 5
a 43 44 8
a 44 43 8
a 44 74 5
a 74 44 5
a 44 45 9
a 45 44 9
a 45 75 5
a 75 45 5
a 45 46 2
a 46 45 2
a 46 76 4
a 76 46 4
a 46 47 10
a 47 46 10
a 47 77 7
a 77 47 7
a 47 48 9
a 48 47 9
a 48 78 4
a 78 48 4
a 48 49 1
a 49 48 1
a 49 79 3
a 79 49 3
a 49 50 1
a 50 49 1
a 50 80 6
a 80 50 6
a 50 51 9
a 51 50 9
a 51 81 10
a 81 51 10
a 51 52 4
a 52 51 4
a 52 82 9
a 82 52 9
a 52 53 7
a 53 52 7
a 53 83 7
a 83 53 7
a 53 54 4
a 54 53 4
a 54 84 10
a 84 54 10
a 56 86 4
a 86 56 4
a 56 57 8
a 57 56 8
a 57 87 7
a 87 57 7
a 57 58 8
a 58 57 8
a 58 88 4
a 88 58 4
a 58 59 6
a 59 58 6
a 59 89 5
a 89 59 5
a 59 60 2
a 60 59 2
a 60 90 4
a 90 60 4
a 61 91 10
a 91 61 10
a 61 62 10
a 62 61 10
a 62 92 10
a 92 62 10
a 62 63 7
a 63 62 7
a 63 93 9
a 93 63 9
a 63 64 5
a 64 63 5
a 64 94 7
a 94 64 7
a 64 65 6
a 65 64 6
a 65 95 1
a 95 65 1
a 67 97 10
a 97 67 10
a 67 68 6
a 68 67 6
a 68 98 9
a 98 68 9
a 68 69 5
a 69 68 5
a 69 99 7
a 99 69 7
a 69 70 9
a 70 69 9
a 70 100 2
a 100 70 2
a 70 71 7
a 71 70 7
a 71 101 10
a 101 71 10
a 71 72 2
a 72 71 2
a 72 102 6
a 102 72 6
a 74 104 3
a 104 74 3
a 74 75 8
a 75 74 8
a 75 105 1
a 105 75 1
a 75 76 7
a 76 75 7
a 76 106 4
a 106 76 4
a 76 77 6
a 77 76 6
a 77 107 2
a 107 77 2
a 77 78 10
a 78 77 10
a 78 108 6
a 108 78 6
a 78 79 7
a 79 78 7
a 79 109 4
a 109 79 4
a 79 80 3
a 80 79 3
a 80 110 2
a 110 80 2
a 80 81 1
a 81 80 1
a 81 111 7
a 111 81 7
a 81 82 7
a 82 81 7
a 82 112 7
a 112 82 7
a 82 83 10
a 83 82 10
a 83 113 7
a 113 83 7
a 83 84 10
a 84 83 10
a 84 114 5
a 114 84 5
a 86 116 5
a 116 86 5
a 86 87 2
a 87 86 2
a 87 117 7
a 117 87 7
a 87 88 3
a 88 87 3
a 88 118 9
a 118 88 9
a 88 89 7
a 89 88 7
a 89 119 9
a 119 89 9
a 89 90 3
a 90 89 3
a 90 120 6
a 120 90 6
a 91 121 1
a 121 91 1
a 91 92 6
a 92 91 6
a 92 122 2
a 122 92 2
a 92 93 6
a 93 92 6
a 93 123 6
a 123 93 6
a 93 94 4
a 94 93 4
a 94 124 2
a 124 94 2
a 94 95 9
a 95 94 9
a 95 125 1
a 125 95 1
a 95 96 2
a 96 95 2
a 96 126 9
a 126 96 9
a 96 97 10
a 97 96 10
a 97 127 2
a 127 97 2
a 97 98 2
a 98 97 2
a 98 128 8
a 128 98 8
a 98 99 8
a 99 98 8
a 99 129 5
a 129 99 5
a 99 100 9
a 100 99 9
a 100 130 10
a 130 100 10
a 100 101 7
a 101 100 7
a 101 131 3
a 131 101 3
a 101 102 3
a 102 101 3
a 102 132 9
a 132 102 9
a 102 103 10
a 103 102 10
a 103 133 6
a 133 103 6
a 103 104 5
a 104 103 5
a 104 134 1
a 134 104 1
a 104 105 3
a 105 104 3
a 105 135 6
a 135 105 6
a 105 106 5
a 106 105 5
a 106 136 4
a 136 106 4
a 106 107 1
a 107 106 1
a 107 137 7
a 137 107 7
a 107 108 10
a 108 107 10
a 108 109 6
a 109 108 6
a 109 139 8
a 139 109 8
a 109 110 9
a 110 109 9
a 110 140 8
a 140 110 8
a 110 111 4
a 111 110 4
a 111 141 7
a 141 111 7
a 111 112 9
a 112 111 9
a 112 142 9
a 142 112 9
a 112 113 10
a 113 112 10
a 113 143 6
a 143 113 6
a 113 114 9
a 114 113 9
a 114 144 6
a 144 114 6
a 114 115 10
a 115 114 10
a 115 145 9
a 145 115 9
a 115 116 3
a 116 115 3
a 116 146 9
a 146 116 9
a 116 117 1
a 117 116 1
a 117 147 10
a 147 117 10
a 117 118 4
a 118 117 4
a 118 148 3
a 148 118 3
a 118 119 2
a 119 118 2
a 119 149 10
a 149 119 10
a 119 120 3
a 120 119 3
a 120 150 10
a 150 120 10
a 121 151 4
a 151 121 4
a 121 122 2
a 122 121 2
a 122 152 9
a 152 122 9
a 122 123 8
a 123 122 8
a 123 153 9
a 153 123 9
a 123 124 8
a 124 123 8
a 124 154 4
a 154 124 4
a 124 125 2
a 125 124 2
a 125 155 2
a 155 125 2
a 125 126 3
a 126 125 3
a 126 156 1
a 156 126 1
a 126 127 8
a 127 126 8
a 127 157 9
a 157 127 9
a 127 128 1
a 128 127 1
a 128 158 3
a 158 128 3
a 128 129 1
a 129 128 1
a 129 159 10
a 159 129 10
a 129 130 5
a 130 129 5
a 130 160 9
a 160 130 9
a 130 131 3
a 131 130 3
a 131 161 3
a 161 131 3
a 131 132 3
a 132 131 3
a 132 162 5
a 162 132 5
a 132 133 7
a 133 132 7
a 133 163 2
a 163 133 2
a 133 134 1
a 134 133 1
a 134 164 6
a 164 134 6
a 134 135 10
a 135 134 10
a 135 165 6
a 165 135 6
a 135 136 1
a 136 135 1
a 136 166 5
a 166 136 5
a 136 137 9
a 137 136 9
a 137 167 3
a 167 137 3
a 139 169 7
a 169 139 7
a 139 140 4
a 140 139 4
a 140 170 8
a 170 140 8
a 140 141 3
a 141 140 3
a 141 171 9
a 171 141 9
a 141 142 2
a 142 141 2
a 142 172 10
a 172 142 10
a 142 143 9
a 143 142 9
a 143 173 3
a 173 143 3
a 143 144 9
a 144 143 9
a 144 174 1
a 174 144 1
a 144 145 4
a 145 144 4
a 145 175 1
a 175 145 1
a 145 146 3
a 146 145 3
a 146 176 8
a 176 146 8
a 146 147 2
a 147 146 2
a 147 177 6
a 177 147 6
a 147 148 4
a 148 147 4
a 148 178 4
a 178 148 4
a 148 149 8
a 149 148 8
a 149 179 1
a 179 149 1
a 149 150 1
a 150 149 1
a 150 180 8
a 180 150 8
a 151 181 6
a 181 151 6
a 151 152 3
a 152 151 3
a 152 182 5
a 182 152 5
a 152 153 8
a 153 152 8
a 153 183 10
a 183 153 10
a 153 154 5
a 154 153 5
a 154 184 6
a 184 154 6
a 154 155 10
a 155 154 10
a 155 185 6
a 185 155 6
a 155 156 4
a 156 155 4
a 156 186 4
a 186 156 4
a 156 157 6
a 157 156 6
a 157 187 3
a 187 157 3
a 157 158 4
a 158 157 4
a 158 188 2
a 188 158 2
a 158 159 7
a 159 158 7
a 159 189 2
a 189 159 2
a 159 160 8
a 160 159 8
a 160 190 4
a 190 160 4
a 160 161 4
a 161 160 4
a 161 191 6
a 191 161 6
a 161 162 9
a 162 161 9
a 162 192 10
a 192 162 10
a 162 163 9
a 163 162 9
a 163 193 9
a 193 163 9
a 163 164 9
a 164 163 9
a 164 194 6
a 194 164 6
a 164 165 2
a 165 164 2
a 165 195 6
a 195 165 6
a 165 166 3
a 166 165 3
a 166 196 8
a 196 166 8
a 166 167 1
a 167 166 1
a 167 197 4
a 197 167 4
a 167 168 4
a 168 167 4
a 168 198 1
a 198 168 1
a 168 169 9
a 169 168 9
a 169 199 3
a 199 169 3
a 169 170 3
a 170 169 3
a 170 200 1
a 200 170 1
a 170 171 3
a 171 170 3
a 171 201 5
a 201 171 5
a 171 172 5
a 172 171 5
a 172 202 8
a 202 172 8
a 172 173 10
a 173 172 10
a 173 203 7
a 203 173 7
a 173 174 10
a 174 173 10
a 174 204 4
a 204 174 4
a 174 175 6
a 175 174 6
a 175 205 9
a 205 175 9
a 175 176 9
a 176 175 9
a 176 206 5
a 206 176 5
a 176 177 8
a 177 176 8
a 177 178 5
a 178 177 5
a 178 208 9
a 208 178 9
a 178 179 2
a 179 178 2
a 179 180 3
a 180 179 3
a 180 210 7
a 210 180 7
a 181 211 7
a 211 181 7
a 181 182 10
a 182 181 10
a 182 212 1
a 212 182 1
a 182 183 3
a 183 182 3
a 183 213 1
a 213 183 1
a 183 184 2
a 184 183 2
a 184 214 5
a 214 184 5
a 184 185 10
a 185 184 10
a 185 215 8
a 215 185 8
a 185 186 9
a 186 185 9
a 186 216 2
a 216 186 2
a 186 187 10
a 187 186 10
a 187 217 3
a 217 187 3
a 187 188 2
a 188 187 2
a 188 218 3
a 218 188 3
a 188 189 1
a 189 188 1
a 189 219 7
a 219 189 7
a 189 190 3
a 190 189 3
a 190 220 2
a 220 190 2
a 190 191 1
a 191 190 1
a 191 221 6
a 221 191 6
a 191 192 7
a 192 191 7
a 192 222 6
a 222 192 6
a 192 193 4
a 193 192 4
a 193 223 9
a 223 193 9
a 193 194 7
a 194 193 7
a 194 224 2
a 224 194 2
a 194 195 2
a 195 194 2
a 195 225 6
a 225 195 6
a 195 196 7
a 196 195 7
a 196 226 3
a 226 196 3
a 196 197 5
a 197 196 5
a 197 227 3
a 227 197 3
a 197 198 6
a 198 197 6
a 198 228 5
a 228 198 5
a 198 199 10
a 199 198 10
a 199 229 9
a 229 199 9
a 199 200 6
a 200 199 6
a 200 230 7
a 230 200 7
a 200 201 9
a 201 200 9
a 201 231 10
a 231 201 10
a 201 202 7
a 202 201 7
a 202 232 6
a 232 202 6
a 202 203 8
a 203 202 8
a 203 233 6
a 233 203 6
a 203 204 2
a 204 203 2
a 204 234 4
a 234 204 4
a 204 205 6
a 205 204 6
a 205 235 1
a 235 205 1
a 205 206 10
a 206 205 10
a 206 236 4
a 236 206 4
a 208 238 1
a 238 208 1
a 210 240 5
a 240 210 5
a 211 241 4
a 241 211 4
a 211 212 3
a 212 211 3
a 212 242 8
a 242 212 8
a 212 213 8
a 213 212 8
a 213 243 10
a 243 213 10
a 213 214 9
a 214 213 9
a 214 244 7
a 244 214 7
a 214 215 7
a 215 214 7
a 215 245 5
a 245 215 5
a 215 216 5
a 216 215 5
a 216 217 6
a 217 216 6
a 217 247 6
a 247 217 6
a 217 218 1
a 218 217 1
a 218 248 9
a 248 218 9
a 218 219 5
a 219 218 5
a 219 249 4
a 249 219 4
a 219 220 9
a 220 219 9
a 220 250 5
a 250 220 5
a 220 221 5
a 221 220 5
a 221 251 5
a 251 221 5
a 221 222 10
a 222 221 10
a 222 252 9
a 252 222 9
a 222 223 2
a 223 222 2
a 223 253 8
a 253 223 8
a 223 224 8
a 224 223 8
a 224 254 4
a 254 224 4
a 224 225 9
a 225 224 9
a 225 255 2
a 255 225 2
a 225 226 5
a 226 225 5
a 226 256 9
a 256 226 9
a 226 227 7
a 227 226 7
a 227 257 4
a 257 227 4
a 227 228 4
a 228 227 4
a 228 258 7
a 258 228 7
a 228 229 10
a 229 228 10
a 229 259 3
a 259 229 3
a 229 230 2
a 230 229 2
a 230 260 2
a 260 230 2
a 230 231 5
a 231 230 5
a 231 232 3
a 232 231 3
a 232 262 3
a 262 232 3
a 232 233 5
a 233 232 5
a 233 263 3
a 263 233 3
a 233 234 4
a 234 233 4
a 234 264 7
a 264 234 7
a 234 235 10
a 235 234 10
a 235 265 3
a 265 235 3
a 235 236 6
a 236 235 6
a 236 266 3
a 266 236 3
a 236 237 4
a 237 236 4
a 237 267 2
a 267 237 2
a 237 238 8
a 238 237 8
a 238 268 5
a 268 238 5
a 238 239 8
a 239 238 8
a 239 240 4
a 240 239 4
a 240 270 9
a 270 240 9
a 241 271 5
a 271 241 5
a 241 242 6
a 242 241 6
a 242 272 8
a 272 242 8
a 242 243 6
a 243 242 6
a 243 273 1
a 273 243 1
a 243 244 4
a 244 243 4
a 244 274 3
a 274 244 3
a 244 245 10
a 245 244 10
a 245 275 1
a 275 245 1
a 247 277 10
a 277 247 10
a 247 248 5
a 248 247 5
a 248 278 10
a 278 248 10
a 248 249 9
a 249 248 9
a 249 279 2
a 279 249 2
a 249 250 7
a 250 249 7
a 250 280 9
a 280 250 9
a 250 251 4
a 251 250 4
a 251 281 5
a 281 251 5
a 251 252 4
a 252 251 4
a 252 282 1
a 282 252 1
a 252 253 10
a 253 252 10
a 253 283 10
a 283 253 10
a 253 254 9
a 254 253 9
a 254 284 9
a 284 254 9
a 254 255 2
a 255 254 2
a 255 285 10
a 285 255 10
a 255 256 7
a 256 255 7
a 256 286 1
a 286 256 1
a 256 257 4
a 257 256 4
a 257 287 2
a 287 257 2
a 257 258 1
a 258 257 1
a 258 288 3
a 288 258 3
a 258 259 10
a 259 258 10
a 259 289 8
a 289 259 8
a 259 260 2
a 260 259 2
a 260 290 10
a 290 260 10
a 262 292 10
a 292 262 10
a 262 263 3
a 263 262 3
a 263 293 10
a 293 263 10
a 263 264 2
a 264 263 2
a 264 294 9
a 294 264 9
a 264 265 4
a 265 264 4
a 265 295 8
a 295 265 8
a 265 266 8
a 266 265 8
a 266 296 5
a 296 266 5
a 266 267 10
a 267 266 10
a 267 297 2
a 297 267 2
a 267 268 3
a 268 267 3
a 268 298 3
a 298 268 3
a 270 300 2
a 300 270 2
a 271 301 9
a 301 271 9
a 271 272 2
a 272 271 2
a 272 273 8
a 273 272 8
a 273 274 7
a 274 273 7
a 274 275 3
a 275 274 3
a 275 305 9
a 305 275 9
a 275 276 5
a 276 275 5
a 276 306 3
a 306 276 3
a 276 277 9
a 277 276 9
a 277 307 5
a 307 277 5
a 277 278 1
a 278 277 1
a 278 308 7
a 308 278 7
a 278 279 9
a 279 278 9
a 279 309 6
a 309 279 6
a 279 280 4
a 280 279 4
a 280 310 2
a 310 280 2
a 280 281 3
a 281 280 3
a 281 311 2
a 311 281 2
a 281 282 5
a 282 281 5
a 282 312 7
a 312 282 7
a 282 283 2
a 283 282 2
a 283 313 1
a 313 283 1
a 283 284 10
a 284 283 10
a 284 285 6
a 285 284 6
a 285 315 8
a 315 285 8
a 285 286 8
a 286 285 8
a 286 316 10
a 316 286 10
a 286 287 3
a 287 286 3
a 287 317 5
a 317 287 5
a 287 288 10
a 288 287 10
a 288 318 4
a 318 288 4
a 288 289 9
a 289 288 9
a 289 319 1
a 319 289 1
a 289 290 9
a 290 289 9
a 290 320 4
a 320 290 4
a 290 291 4
a 291 290 4
a 291 321 5
a 321 291 5
a 291 292 9
a 292 291 9
a 292 322 8
a 322 292 8
a 292 293 3
a 293 292 3
a 293 323 1
a 323 293 1
a 293 294 5
a 294 293 5
a 294 324 3
a 324 294 3
a 294 295 1
a 295 294 1
a 295 325 8
a 325 295 8
a 295 296 9
a 296 295 9
a 296 326 4
a 326 296 4
a 296 297 4
a 297 296 4
a 297 327 9
a 327 297 9
a 297 298 3
a 298 297 3
a 298 328 2
a 328 298 2
a 298 299 4
a 299 298 4
a 299 329 10
a 329 299 10
a 299 300 1
a 300 299 1
a 300 330 3
a 330 300 3
a 301 331 8
a 331 301 8
a 305 335 2
a 335 305 2
a 305 306 9
a 306 305 9
a 306 336 2
a 336 306 2
a 306 307 3
a 307 306 3
a 307 337 7
a 337 307 7
a 307 308 8
a 308 307 8
a 308 338 1
a 338 308 1
a 308 309 1
a 309 308 1
a 309 339 2
a 339 309 2
a 309 310 4
a 310 309 4
a 310 340 10
a 340 310 10
a 310 311 2
a 311 310 2
a 311 341 5
a 341 311 5
a 311 312 4
a 312 311 4
a 312 342 1
a 342 312 1
a 312 313 6
a 313 312 6
a 313 343 9
a 343 313 9
a 315 345 9
a 345 315 9
a 315 316 5
a 316 315 5
a 316 346 9
a 346 316 9
a 316 317 6
a 317 316 6
a 317 347 5
a 347 317 5
a 317 318 6
a 318 317 6
a 318 348 10
a 348 318 10
a 318 319 2
a 319 318 2
a 319 349 10
a 349 319 10
a 319 320 5
a 320 319 5
a 320 350 1
a 350 320 1
a 320 321 7
a 321 320 7
a 321 351 8
a 351 321 8
a 321 322 8
a 322 321 8
a 322 352 10
a 352 322 10
a 322 323 3
a 323 322 3
a 323 324 6
a 324 323 6
a 324 354 3
a 354 324 3
a 324 325 4
a 325 324 4
a 325 355 1
a 355 325 1
a 325 326 6
a 326 325 6
a 326 356 2
a 356 326 2
a 326 327 5
a 327 326 5
a 327 357 3
a 357 327 3
a 327 328 5
a 328 327 5
a 328 358 9
a 358 328 9
a 328 329 2
a 329 328 2
a 329 359 8
a 359 329 8
a 329 330 2
a 330 329 2
a 330 360 3
a 360 330 3
a 331 361 5
a 361 331 5
a 331 332 6
a 332 331 6
a 332 362 10
a 362 332 10
a 332 333 6
a 333 332 6
a 333 363 9
a 363 333 9
a 333 334 6
a 334 333 6
a 334 364 4
a 364 334 4
a 334 335 6
a 335 334 6
a 335 365 2
a 365 335 2
a 335 336 5
a 336 335 5
a 336 366 3
a 366 336 3
a 336 337 3
a 337 336 3
a 337 367 7
a 367 337 7
a 337 338 7
a 338 337 7
a 338 368 8
a 368 338 8
a 338 339 3
a 339 338 3
a 339 369 8
a 369 339 8
a 339 340 8
a 340 339 8
a 340 370 1
a 370 340 1
a 340 341 2
a 341 340 2
a 341 371 3
a 371 341 3
a 341 342 2
a 342 341 2
a 342 372 9
a 372 342 9
a 342 343 7
a 343 342 7
a 343 373 10
a 373 343 10
a 343 344 3
a 344 343 3
a 344 374 9
a 374 344 9
a 344 345 10
a 345 344 10
a 345 375 10
a 375 345 10
a 345 346 4
a 346 345 4
a 346 376 9
a 376 346 9
a 346 347 2
a 347 346 2
a 347 377 4
a 377 347 4
a 347 348 5
a 348 347 5
a 348 378 6
a 378 348 6
a 348 349 9
a 349 348 9
a 349 379 5
a 379 349 5
a 349 350 9
a 350 349 9
a 350 380 9
a 380 350 9
a 350 351 10
a 351 350 10
a 351 352 8
a 352 351 8
a 354 384 8
a 384 354 8
a 354 355 6
a 355 354 6
a 355 385 3
a 385 355 3
a 355 356 3
a 356 355 3
a 356 386 10
a 386 356 10
a 356 357 1
a 357 356 1
a 357 358 5
a 358 357 5
a 358 388 3
a 388 358 3
a 358 359 1
a 359 358 1
a 359 389 2
a 389 359 2
a 359 360 9
a 360 359 9
a 360 390 6
a 390 360 6
a 361 391 4
a 391 361 4
a 361 362 9
a 362 361 9
a 362 392 4
a 392 362 4
a 362 363 5
a 363 362 5
a 363 393 9
a 393 363 9
a 363 364 9
a 364 363 9
a 364 394 10
a 394 364 10
a 364 365 9
a 365 364 9
a 365 395 5
a 395 365 5
a 365 366 4
a 366 365 4
a 366 396 5
a 396 366 5
a 366 367 8
a 367 366 8
a 367 397 10
a 397 367 10
a 367 368 5
a 368 367 5
a 368 398 2
a 398 368 2
a 368 369 8
a 369 368 8
a 369 399 2
a 399 369 2
a 369 370 8
a 370 369 8
a 370 400 7
a 400 370 7
a 370 371 10
a 371 370 10
a 371 401 2
a 401 371 2
a 371 372 2
a 372 371 2
a 372 373 4
a 373 372 4
a 373 403 1
a 403 373 1
a 373 374 7
a 374 373 7
a 374 404 2
a 404 374 2
a 374 375 7
a 375 374 7
a 375 405 1
a 405 375 1
a 375 376 10
a 376 375 10
a 376 406 10
a 406 376 10
a 376 377 2
a 377 376 2
a 377 407 7
a 407 377 7
a 377 378 8
a 378 377 8
a 378 408 9
a 408 378 9
a 378 379 1
a 379 378 1
a 379 380 1
a 380 379 1
a 380 410 9
a 410 380 9
a 383 413 3
a 413 383 3
a 383 384 4
a 384 383 4
a 384 414 9
a 414 384 9
a 384 385 5
a 385 384 5
a 385 415 2
a 415 385 2
a 385 386 10
a 386 385 10
a 386 416 5
a 416 386 5
a 388 418 10
a 418 388 10
a 388 389 2
a 389 388 2
a 389 419 8
a 419 389 8
a 389 390 8
a 390 389 8
a 390 420 1
a 420 390 1
a 391 421 2
a 421 391 2
a 391 392 5
a 392 391 5
a 392 422 2
a 422 392 2
a 392 393 9
a 393 392 9
a 393 423 1
a 423 393 1
a 393 394 9
a 394 393 9
a 394 424 4
a 424 394 4
a 394 395 8
a 395 394 8
a 395 425 4
a 425 395 4
a 395 396 3
a 396 395 3
a 396 426 2
a 426 396 2
a 396 397 10
a 397 396 10
a 397 427 7
a 427 397 7
a 397 398 1
a 398 397 1
a 398 428 5
a 428 398 5
a 398 399 6
a 399 398 6
a 399 429 8
a 429 399 8
a 399 400 6
a 400 399 6
a 400 430 10
a 430 400 10
a 400 401 10
a 401 400 10
a 401 431 1
a 431 401 1
a 403 433 9
a 433 403 9
a 403 404 3
a 404 403 3
a 404 434 9
a 434 404 9
a 404 405 10
a 405 404 10
a 405 435 9
a 435 405 9
a 405 406 3
a 406 405 3
a 406 436 7
a 436 406 7
a 406 407 10
a 407 406 10
a 407 408 9
a 408 407 9
a 408 438 5
a 438 408 5
a 410 440 6
a 440 410 6
a 410 411 10
a 411 410 10
a 411 441 3
a 441 411 3
a 411 412 2
a 412 411 2
a 412 413 6
a 413 412 6
a 413 443 5
a 443 413 5
a 413 414 6
a 414 413 6
a 414 444 4
a 444 414 4
a 414 415 5
a 415 414 5
a 415 445 9
a 445 415 9
a 415 416 8
a 416 415 8
a 416 446 1
a 446 416 1
a 416 417 10
a 417 416 10
a 417 447 8
a 447 417 8
a 417 418 2
a 418 417 2
a 418 448 10
a 448 418 10
a 418 419 10
a 419 418 10
a 419 449 2
a 449 419 2
a 419 420 1
a 420 419 1
a 420 450 7
a 450 420 7
a 421 451 5
a 451 421 5
a 421 422 9
a 422 421 9
a 422 452 4
a 452 422 4
a 422 423 4
a 423 422 4
a 423 453 1
a 453 423 1
a 423 424 7
a 424 423 7
a 424 454 7
a 454 424 7
a 424 425 9
a 425 424 9
a 425 455 6
a 455 425 6
a 425 426 8
a 426 425 8
a 426 456 5
a 456 426 5
a 426 427 7
a 427 426 7
a 427 457 6
a 457 427 6
a 427 428 8
a 428 427 8
a 428 458 2
a 458 428 2
a 428 429 4
a 429 428 4
a 429 459 8
a 459 429 8
a 429 430 5
a 430 429 5
a 430 460 7
a 460 430 7
a 430 431 2
a 431 430 2
a 431 461 3
a 461 431 3
a 431 432 6
a 432 431 6
a 432 462 6
a 462 432 6
a 432 433 3
a 433 432 3
a 433 463 6
a 463 433 6
a 433 434 3
a 434 433 3
a 434 464 7
a 464 434 7
a 434 435 7
a 435 434 7
a 435 436 3
a 436 435 3
a 438 468 2
a 468 438 2
a 438 439 3
a 439 438 3
a 439 469 8
a 469 439 8
a 439 440 1
a 440 439 1
a 440 470 1
a 470 440 1
a 440 441 2
a 441 440 2
a 441 471 4
a 471 441 4
a 443 473 9
a 473 443 9
a 443 444 3
a 444 443 3
a 444 474 9
a 474 444 9
a 444 445 3
a 445 444 3
a 445 475 8
a 475 445 8
a 445 446 5
a 446 445 5
a 446 476 5
a 476 446 5
a 446 447 4
a 447 446 4
a 447 477 9
a 477 447 9
a 447 448 1
a 448 447 1
a 448 478 6
a 478 448 6
a 448 449 8
a 449 448 8
a 449 479 4
a 479 449 4
a 449 450 9
a 450 449 9
a 450 480 7
a 480 450 7
a 451 481 2
a 481 451 2
a 451 452 3
a 452 451 3
a 452 482 1
a 482 452 1
a 452 453 1
a 453 452 1
a 453 483 8
a 483 453 8
a 453 454 2
a 454 453 2
a 454 455 2
a 455 454 2
a 455 485 5
a 485 455 5
a 455 456 9
a 456 455 9
a 456 486 9
a 486 456 9
a 456 457 2
a 457 456 2
a 457 487 1
a 487 457 1
a 457 458 9
a 458 457 9
a 458 488 1
a 488 458 1
a 458 459 2
a 459 458 2
a 459 489 10
a 489 459 10
a 459 460 9
a 460 459 9
a 460 490 5
a 490 460 5
a 460 461 3
a 461 460 3
a 461 491 10
a 491 461 10
a 461 462 4
a 462 461 4
a 462 492 4
a 492 462 4
a 462 463 10
a 463 462 10
a 463 464 4
a 464 463 4
a 464 494 9
a 494 464 9
a 467 497 5
a 497 467 5
a 467 468 7
a 468 467 7
a 468 498 7
a 498 468 7
a 468 469 3
a 469 468 3
a 469 499 7
a 499 469 7
a 469 470 1
a 470 469 1
a 470 500 1
a 500 470 1
a 470 471 9
a 471 470 9
a 471 501 8
a 501 471 8
a 471 472 1
a 472 471 1
a 472 502 8
a 502 472 8
a 472 473 6
a 473 472 6
a 473 503 6
a 503 473 6
a 473 474 1
a 474 473 1
a 474 504 5
a 504 474 5
a 474 475 1
a 475 474 1
a 475 505 4
a 505 475 4
a 475 476 4
a 476 475 4
a 476 506 4
a 506 476 4
a 476 477 6
a 477 476 6
a 477 507 7
a 507 477 7
a 477 478 2
a 478 477 2
a 478 508 4
a 508 478 4
a 478 479 7
a 479 478 7
a 479 509 6
a 509 479 6
a 479 480 1
a 480 479 1
a 481 511 7
a 511 481 7
a 481 482 1
a 482 481 1
a 482 512 4
a 512 482 4
a 482 483 6
a 483 482 6
a 483 513 5
a 513 483 5
a 485 486 2
a 486 485 2
a 486 516 2
a 516 486 2
a 486 487 2
a 487 486 2
a 487 517 9
a 517 487 9
a 487 488 3
a 488 487 3
a 488 518 10
a 518 488 10
a 488 489 6
a 489 488 6
a 489 519 3
a 519 489 3
a 489 490 10
a 490 489 10
a 490 520 8
a 520 490 8
a 490 491 6
a 491 490 6
a 491 521 9
a 521 491 9
a 491 492 1
a 492 491 1
a 492 522 6
a 522 492 6
a 494 524 10
a 524 494 10
a 494 495 5
a 495 494 5
a 495 525 10
a 525 495 10
a 495 496 6
a 496 495 6
a 496 526 1
a 526 496 1
a 496 497 7
a 497 496 7
a 497 527 8
a 527 497 8
a 497 498 1
a 498 497 1
a 498 528 2
a 528 498 2
a 498 499 7
a 499 498 7
a 499 529 8
a 529 499 8
a 499 500 1
a 500 499 1
a 500 530 8
a 530 500 8
a 500 501 1
a 501 500 1
a 501 531 6
a 531 501 6
a 501 502 9
a 502 501 9
a 502 532 3
a 532 502 3
a 502 503 4
a 503 502 4
a 503 533 9
a 533 503 9
a 503 504 8
a 504 503 8
a 504 534 5
a 534 504 5
a 504 505 8
a 505 504 8
a 505 535 6
a 535 505 6
a 505 506 6
a 506 505 6
a 506 536 10
a 536 506 10
a 506 507 8
a 507 506 8
a 507 537 1
a 537 507 1
a 507 508 5
a 508 507 5
a 508 538 8
a 538 508 8
a 508 509 9
a 509 508 9
a 509 539 10
a 539 509 10
a 511 541 8
a 541 511 8
a 511 512 4
a 512 511 4
a 512 542 8
a 542 512 8
a 512 513 6
a 513 512 6
a 513 543 7
a 543 513 7
a 513 514 6
a 514 513 6
a 514 544 9
a 544 514 9
a 516 546 9
a 546 516 9
a 516 517 10
a 517 516 10
a 517 547 4
a 547 517 4
a 517 518 7
a 518 517 7
a 518 548 3
a 548 518 3
a 518 519 7
a 519 518 7
a 519 549 1
a 549 519 1
a 519 520 8
a 520 519 8
a 520 550 7
a 550 520 7
a 520 521 10
a 521 520 10
a 521 551 9
a 551 521 9
a 521 522 4
a 522 521 4
a 522 552 2
a 552 522 2
a 522 523 7
a 523 522 7
a 523 553 9
a 553 523 9
a 523 524 7
a 524 523 7
a 524 554 8
a 554 524 8
a 524 525 3
a 525 524 3
a 525 555 3
a 555 525 3
a 525 526 9
a 526 525 9
a 526 556 8
a 556 526 8
a 526 527 4
a 527 526 4
a 527 557 4
a 557 527 4
a 527 528 7
a 528 527 7
a 528 558 6
a 558 528 6
a 528 529 2
a 529 528 2
a 529 559 8
a 559 529 8
a 529 530 2
a 530 529 2
a 530 560 5
a 560 530 5
a 530 531 5
a 531 530 5
a 531 561 8
a 561 531 8
a 531 532 8
a 532 531 8
a 532 562 9
a 562 532 9
a 532 533 1
a 533 532 1
a 533 563 8
a 563 533 8
a 533 534 5
a 534 533 5
a 534 564 10
a 564 534 10
a 534 535 5
a 535 534 5
a 535 565 5
a 565 535 5
a 535 536 1
a 536 535 1
a 536 566 9
a 566 536 9
a 536 537 5
a 537 536 5
a 537 567 1
a 567 537 1
a 537 538 9
a 538 537 9
a 538 568 3
a 568 538 3
a 538 539 3
a 539 538 3
a 539 569 2
a 569 539 2
a 539 540 5
a 540 539 5
a 540 570 4
a 570 540 4
a 541 571 1
a 571 541 1
a 541 542 3
a 542 541 3
a 542 572 3
a 572 542 3
a 542 543 10
a 543 542 10
a 543 573 7
a 573 543 7
a 543 544 5
a 544 543 5
a 544 574 9
a 574 544 9
a 544 545 10
a 545 544 10
a 545 575 9
a 575 545 9
a 545 546 10
a 546 545 10
a 546 576 5
a 576 546 5
a 546 547 5
a 547 546 5
a 547 577 5
a 577 547 5
a 547 548 9
a 548 547 9
a 548 578 6
a 578 548 6
a 548 549 8
a 549 548 8
a 549 579 9
a 579 549 9
a 549 550 6
a 550 549 6
a 550 580 8
a 580 550 8
a 550 551 1
a 551 550 1
a 551 552 2
a 552 551 2
a 552 582 6
a 582 552 6
a 552 553 9
a 553 552 9
a 553 583 4
a 583 553 4
a 553 554 4
a 554 553 4
a 554 584 7
a 584 554 7
a 554 555 9
a 555 554 9
a 555 585 5
a 585 555 5
a 555 556 7
a 556 555 7
a 556 586 6
a 586 556 6
a 556 557 6
a 557 556 6
a 557 587 2
a 587 557 2
a 557 558 2
a 558 557 2
a 558 588 10
a 588 558 10
a 558 559 3
a 559 558 3
a 559 589 4
a 589 559 4
a 559 560 4
a 560 559 4
a 560 590 3
a 590 560 3
a 560 561 2
a 561 560 2
a 561 562 6
a 562 561 6
a 562 592 8
a 592 562 8
a 562 563 7
a 563 562 7
a 563 593 3
a 593 563 3
a 563 564 10
a 564 563 10
a 564 594 6
a 594 564 6
a 564 565 8
a 565 564 8
a 565 595 1
a 595 565 1
a 565 566 3
a 566 565 3
a 566 596 9
a 596 566 9
a 566 567 7
a 567 566 7
a 567 597 4
a 597 567 4
a 567 568 1
a 568 567 1
a 568 598 6
a 598 568 6
a 568 569 1
a 569 568 1
a 569 599 9
a 599 569 9
a 569 570 2
a 570 569 2
a 570 600 5
a 600 570 5
a 571 601 7
a 601 571 7
a 571 572 8
a 572 571 8
a 572 602 6
a 602 572 6
a 572 573 6
a 573 572 6
a 573 603 10
a 603 573 10
a 573 574 9
a 574 573 9
a 574 604 3
a 604 574 3
a 574 575 4
a 575 574 4
a 575 605 5
a 605 575 5
a 575 576 1
a 576 575 1
a 576 606 3
a 606 576 3
a 576 577 7
a 577 576 7
a 577 607 6
a 607 577 6
a 577 578 4
a 578 577 4
a 578 579 7
a 579 578 7
a 579 609 5
a 609 579 5
a 579 580 4
a 580 579 4
a 580 610 9
a 610 580 9
a 582 612 7
a 612 582 7
a 582 583 2
a 583 582 2
a 583 613 4
a 613 583 4
a 583 584 8
a 584 583 8
a 584 614 6
a 614 584 6
a 584 585 6
a 585 584 6
a 585 615 8
a 615 585 8
a 585 586 8
a 586 585 8
a 586 616 2
a 616 586 2
a 586 587 7
a 587 586 7
a 587 617 4
a 617 587 4
a 587 588 10
a 588 587 10
a 588 618 8
a 618 588 8
a 588 589 5
a 589 588 5
a 589 590 7
a 590 589 7
a 590 620 4
a 620 590 4
a 592 622 7
a 622 592 7
a 592 593 2
a 593 592 2
a 593 623 9
a 623 593 9
a 593 594 3
a 594 593 3
a 594 624 4
a 624 594 4
a 594 595 5
a 595 594 5
a 595 625 9
a 625 595 9
a 595 596 3
a 596 595 3
a 596 626 1
a 626 596 1
a 596 597 4
a 597 596 4
a 597 627 6
a 627 597 6
a 597 598 3
a 598 597 3
a 598 628 7
a 628 598 7
a 598 599 9
a 599 598 9
a 599 629 7
a 629 599 7
a 599 600 10
a 600 599 10
a 600 630 9
a 630 600 9
a 601 631 3
a 631 601 3
a 601 602 4
a 602 601 4
a 602 632 6
a 632 602 6
a 602 603 6
a 603 602 6
a 603 633 4
a 633 603 4
a 603 604 5
a 604 603 5
a 604 634 6
a 634 604 6
a 604 605 4
a 605 604 4
a 605 635 9
a 635 605 9
a 605 606 1
a 606 605 1
a 606 636 10
a 636 606 10
a 606 607 10
a 607 606 10
a 607 637 9
a 637 607 9
a 609 639 6
a 639 609 6
a 609 610 6
a 610 609 6
a 610 640 3
a 640 610 3
a 612 642 2
a 642 612 2
a 612 613 4
a 613 612 4
a 613 643 7
a 643 613 7
a 613 614 6
a 614 613 6
a 614 644 7
a 644 614 7
a 614 615 8
a 615 614 8
a 615 645 10
a 645 615 10
a 615 616 8
a 616 615 8
a 616 646 10
a 646 616 10
a 616 617 6
a 617 616 6
a 617 647 5
a 647 617 5
a 617 618 5
a 618 617 5
a 618 648 4
a 648 618 4
a 620 650 9
a 650 620 9
a 620 621 4
a 621 620 4
a 621 651 3
a 651 621 3
a 621 622 6
a 622 621 6
a 622 652 7
a 652 622 7
a 622 623 3
a 623 622 3
a 623 653 7
a 653 623 7
a 623 624 9
a 624 623 9
a 624 654 1
a 654 624 1
a 624 625 2
a 625 624 2
a 625 655 6
a 655 625 6
a 625 626 8
a 626 625 8
a 626 656 9
a 656 626 9
a 626 627 2
a 627 626 2
a 627 657 9
a 657 627 9
a 627 628 7
a 628 627 7
a 628 658 10
a 658 628 10
a 628 629 2
a 629 628 2
a 629 659 8
a 659 629 8
a 629 630 6
a 630 629 6
a 630 660 9
a 660 630 9
a 631 661 4
a 661 631 4
a 631 632 1
a 632 631 1
a 632 662 3
a 662 632 3
a 632 633 4
a 633 632 4
a 633 663 1
a 663 633 1
a 633 634 3
a 634 633 3
a 634 664 8
a 664 634 8
a 634 635 3
a 635 634 3
a 635 665 6
a 665 635 6
a 635 636 5
a 636 635 5
a 636 666 5
a 666 636 5
a 636 637 1
a 637 636 1
a 637 667 3
a 667 637 3
a 637 638 10
a 638 637 10
a 638 668 7
a 668 638 7
a 638 639 7
a 639 638 7
a 639 669 8
a 669 639 8
a 639 640 3
a 640 639 3
a 640 670 3
a 670 640 3
a 640 641 2
a 641 640 2
a 641 671 3
a 671 641 3
a 641 642 3
a 642 641 3
a 642 672 4
a 672 642 4
a 642 643 5
a 643 642 5
a 643 673 4
a 673 643 4
a 643 644 5
a 644 643 5
a 644 674 7
a 674 644 7
a 644 645 2
a 645 644 2
a 645 675 9
a 675 645 9
a 645 646 10
a 646 645 10
a 646 676 2
a 676 646 2
a 646 647 8
a 647 646 8
a 647 677 3
a 677 647 3
a 647 648 9
a 648 647 9
a 648 678 7
a 678 648 7
a 648 649 5
a 649 648 5
a 649 679 8
a 679 649 8
a 649 650 3
a 650 649 3
a 650 680 6
a 680 650 6
a 650 651 4
a 651 650 4
a 651 681 4
a 681 651 4
a 651 652 1
a 652 651 1
a 652 682 5
a 682 652 5
a 652 653 2
a 653 652 2
a 653 683 8
a 683 653 8
a 653 654 6
a 654 653 6
a 654 684 2
a 684 654 2
a 654 655 2
a 655 654 2
a 655 685 3
a 685 655 3
a 655 656 2
a 656 655 2
a 656 686 5
a 686 656 5
a 656 657 6
a 657 656 6
a 657 687 4
a 687 657 4
a 657 658 5
a 658 657 5
a 658 688 9
a 688 658 9
a 658 659 1
a 659 658 1
a 659 689 9
a 689 659 9
a 659 660 4
a 660 659 4
a 660 690 10
a 690 660 10
a 661 691 3
a 691 661 3
a 661 662 8
a 662 661 8
a 662 692 7
a 692 662 7
a 662 663 3
a 663 662 3
a 663 693 5
a 693 663 5
a 663 664 2
a 664 663 2
a 664 694 3
a 694 664 3
a 664 665 7
a 665 664 7
a 665 695 9
a 695 665 9
a 665 666 5
a 666 665 5
a 666 696 5
a 696 666 5
a 666 667 5
a 667 666 5
a 667 697 1
a 697 667 1
a 667 668 8
a 668 667 8
a 668 698 2
a 698 668 2
a 668 669 2
a 669 668 2
a 669 699 1
a 699 669 1
a 669 670 2
a 670 669 2
a 670 700 10
a 700 670 10
a 670 671 3
a 671 670 3
a 671 701 5
a 701 671 5
a 671 672 6
a 672 671 6
a 672 702 1
a 702 672 1
a 672 673 8
a 673 672 8
a 673 703 8
a 703 673 8
a 673 674 1
a 674 673 1
a 674 704 6
a 704 674 6
a 674 675 7
a 675 674 7
a 675 705 4
a 705 675 4
a 675 676 3
a 676 675 3
a 676 706 2
a 706 676 2
a 676 677 2
a 677 676 2
a 677 707 2
a 707 677 2
a 677 678 5
a 678 677 5
a 678 708 2
a 708 678 2
a 678 679 3
a 679 678 3
a 679 709 10
a 709 679 10
a 679 680 4
a 680 679 4
a 680 710 7
a 710 680 7
a 680 681 2
a 681 680 2
a 681 711 1
a 711 681 1
a 681 682 7
a 682 681 7
a 682 712 7
a 712 682 7
a 682 683 2
a 683 682 2
a 683 713 7
a 713 683 7
a 683 684 7
a 684 683 7
a 684 714 1
a 714 684 1
a 684 685 8
a 685 684 8
a 685 715 8
a 715 685 8
a 685 686 9
a 686 685 9
a 686 716 6
a 716 686 6
a 686 687 9
a 687 686 9
a 687 717 7
a 717 687 7
a 687 688 2
a 688 687 2
a 688 718 5
a 718 688 5
a 688 689 6
a 689 688 6
a 689 690 8
a 690 689 8
a 690 720 1
a 720 690 1
a 691 721 6
a 721 691 6
a 691 692 9
a 692 691 9
a 692 722 7
a 722 692 7
a 692 693 3
a 693 692 3
a 693 723 9
a 723 693 9
a 693 694 6
a 694 693 6
a 694 695 5
a 695 694 5
a 695 725 5
a 725 695 5
a 695 696 4
a 696 695 4
a 696 726 7
a 726 696 7
a 696 697 10
a 697 696 10
a 697 727 1
a 727 697 1
a 697 698 6
a 698 697 6
a 698 728 6
a 728 698 6
a 698 699 4
a 699 698 4
a 699 729 1
a 729 699 1
a 699 700 3
a 700 699 3
a 700 730 3
a 730 700 3
a 700 701 5
a 701 700 5
a 701 731 2
a 731 701 2
a 701 702 8
a 702 701 8
a 702 732 2
a 732 702 2
a 702 703 5
a 703 702 5
a 703 733 1
a 733 703 1
a 703 704 2
a 704 703 2
a 704 734 2
a 734 704 2
a 704 705 2
a 705 704 2
a 705 706 3
a 706 705 3
a 706 736 7
a 736 706 7
a 706 707 2
a 707 706 2
a 707 737 9
a 737 707 9
a 707 708 3
a 708 707 3
a 708 738 2
a 738 708 2
a 708 709 5
a 709 708 5
a 709 739 7
a 739 709 7
a 709 710 6
a 710 709 6
a 710 740 6
a 740 710 6
a 710 711 3
a 711 710 3
a 711 741 4
a 741 711 4
a 711 712 3
a 712 711 3
a 712 742 4
a 742 712 4
a 712 713 4
a 713 712 4
a 713 743 7
a 743 713 7
a 713 714 4
a 714 713 4
a 714 744 7
a 744 714 7
a 714 715 8
a 715 714 8
a 715 745 8
a 745 715 8
a 715 716 4
a 716 715 4
a 716 746 8
a 746 716 8
a 716 717 10
a 717 716 10
a 717 747 1
a 747 717 1
a 717 718 3
a 718 717 3
a 718 748 8
a 748 718 8
a 720 750 9
a 750 720 9
a 721 751 8
a 751 721 8
a 721 722 1
a 722 721 1
a 722 752 10
a 752 722 10
a 722 723 9
a 723 722 9
a 723 753 4
a 753 723 4
a 725 726 5
a 726 725 5
a 726 756 1
a 756 726 1
a 726 727 6
a 727 726 6
a 727 757 10
a 757 727 10
a 727 728 2
a 728 727 2
a 728 758 5
a 758 728 5
a 728 729 10
a 729 728 10
a 729 759 10
a 759 729 10
a 729 730 2
a 730 729 2
a 730 760 10
a 760 730 10
a 730 731 2
a 731 730 2
a 731 761 9
a 761 731 9
a 731 732 8
a 732 731 8
a 732 762 4
a 762 732 4
a 732 733 9
a 733 732 9
a 733 763 10
a 763 733 10
a 733 734 8
a 734 733 8
a 734 764 5
a 764 734 5
a 736 766 10
a 766 736 10
a 736 737 6
a 737 736 6
a 737 767 10
a 767 737 10
a 737 738 7
a 738 737 7
a 738 768 4
a 768 738 4
a 738 739 7
a 739 738 7
a 739 769 8
a 769 739 8
a 739 740 9
a 740 739 9
a 740 770 7
a 770 740 7
a 740 741 4
a 741 740 4
a 741 771 2
a 771 741 2
a 741 742 1
a 742 741 1
a 742 772 1
a 772 742 1
a 742 743 9
a 743 742 9
a 743 773 2
a 773 743 2
a 743 744 1
a 744 743 1
a 744 774 10
a 774 744 10
a 744 745 5
a 745 744 5
a 745 775 2
a 775 745 2
a 745 746 10
a 746 745 10
a 746 776 6
a 776 746 6
a 746 747 10
a 747 746 10
a 747 777 5
a 777 747 5
a 747 748 4
a 748 747 4
a 748 778 9
a 778 748 9
a 748 749 8
a 749 748 8
a 749 779 7
a 779 749 7
a 749 750 1
a 750 749 1
a 750 780 8
a 780 750 8
a 751 781 10
a 781 751 10
a 751 752 8
a 752 751 8
a 752 753 7
a 753 752 7
a 753 783 9
a 783 753 9
a 753 754 10
a 754 753 10
a 754 784 8
a 784 754 8
a 756 786 3
a 786 756 3
a 756 757 7
a 757 756 7
a 757 787 10
a 787 757 10
a 757 758 1
a 758 757 1
a 758 788 6
a 788 758 6
a 758 759 6
a 759 758 6
a 759 789 7
a 789 759 7
a 759 760 4
a 760 759 4
a 760 790 2
a 790 760 2
a 760 761 10
a 761 760 10
a 761 791 5
a 791 761 5
a 761 762 2
a 762 761 2
a 762 792 5
a 792 762 5
a 762 763 8
a 763 762 8
a 763 793 4
a 793 763 4
a 763 764 10
a 764 763 10
a 764 794 9
a 794 764 9
a 764 765 2
a 765 764 2
a 765 795 6
a 795 765 6
a 765 766 4
a 766 765 4
a 766 796 8
a 796 766 8
a 766 767 6
a 767 766 6
a 767 797 10
a 797 767 10
a 767 768 7
a 768 767 7
a 768 798 6
a 798 768 6
a 768 769 4
a 769 768 4
a 769 799 9
a 799 769 9
a 769 770 4
a 770 769 4
a 770 800 6
a 800 770 6
a 770 771 5
a 771 770 5
a 771 801 9
a 801 771 9
a 771 772 7
a 772 771 7
a 772 802 8
a 802 772 8
a 772 773 3
a 773 772 3
a 773 803 8
a 803 773 8
a 773 774 1
a 774 773 1
a 774 804 7
a 804 774 7
a 774 775 1
a 775 774 1
a 775 805 7
a 805 775 7
a 775 776 9
a 776 775 9
a 776 806 2
a 806 776 2
a 776 777 4
a 777 776 4
a 777 807 7
a 807 777 7
a 777 778 2
a 778 777 2
a 778 808 1
a 808 778 1
a 778 779 4
a 779 778 4
a 779 809 1
a 809 779 1
a 779 780 9
a 780 779 9
a 780 810 5
a 810 780 5
a 781 811 3
a 811 781 3
a 783 813 2
a 813 783 2
a 783 784 10
a 784 783 10
a 784 814 1
a 814 784 1
a 784 785 8
a 785 784 8
a 785 815 6
a 815 785 6
a 785 786 1
a 786 785 1
a 786 816 1
a 816 786 1
a 786 787 4
a 787 786 4
a 787 817 8
a 817 787 8
a 787 788 2
a 788 787 2
a 788 789 10
a 789 788 10
a 789 819 2
a 819 789 2
a 789 790 9
a 790 789 9
a 790 820 8
a 820 790 8
a 790 791 4
a 791 790 4
a 791 821 1
a 821 791 1
a 791 792 9
a 792 791 9
a 792 822 10
a 822 792 10
a 792 793 3
a 793 792 3
a 793 823 3
a 823 793 3
a 793 794 4
a 794 793 4
a 794 824 10
a 824 794 10
a 794 795 6
a 795 794 6
a 795 825 4
a 825 795 4
a 795 796 3
a 796 795 3
a 796 826 4
a 826 796 4
a 796 797 3
a 797 796 3
a 797 827 1
a 827 797 1
a 797 798 7
a 798 797 7
a 798 828 5
a 828 798 5
a 798 799 2
a 799 798 2
a 799 829 7
a 829 799 7
a 799 800 5
a 800 799 5
a 800 830 2
a 830 800 2
a 800 801 5
a 801 800 5
a 801 831 6
a 831 801 6
a 801 802 5
a 802 801 5
a 802 832 10
a 832 802 10
a 802 803 10
a 803 802 10
a 803 833 9
a 833 803 9
a 803 804 3
a 804 803 3
a 804 805 10
a 805 804 10
a 805 835 7
a 835 805 7
a 805 806 9
a 806 805 9
a 806 836 3
a 836 806 3
a 806 807 7
a 807 806 7
a 807 837 4
a 837 807 4
a 807 808 2
a 808 807 2
a 808 838 9
a 838 808 9
a 808 809 5
a 809 808 5
a 809 839 10
a 839 809 10
a 809 810 6
a 810 809 6
a 810 840 9
a 840 810 9
a 811 841 10
a 841 811 10
a 811 812 9
a 812 811 9
a 812 842 8
a 842 812 8
a 812 813 9
a 813 812 9
a 813 843 4
a 843 813 4
a 813 814 10
a 814 813 10
a 814 844 6
a 844 814 6
a 814 815 5
a 815 814 5
a 815 845 8
a 845 815 8
a 815 816 7
a 816 815 7
a 816 846 3
a 846 816 3
a 816 817 3
a 817 816 3
a 817 847 9
a 847 817 9
a 819 849 7
a 849 819 7
a 819 820 3
a 820 819 3
a 820 850 5
a 850 820 5
a 820 821 1
a 821 820 1
a 821 851 9
a 851 821 9
a 821 822 6
a 822 821 6
a 822 852 4
a 852 822 4
a 822 823 2
a 823 822 2
a 823 853 10
a 853 823 10
a 823 824 4
a 824 823 4
a 824 854 1
a 854 824 1
a 824 825 4
a 825 824 4
a 825 855 1
a 855 825 1
a 825 826 4
a 826 825 4
a 826 856 4
a 856 826 4
a 826 827 1
a 827 826 1
a 827 857 4
a 857 827 4
a 827 828 1
a 828 827 1
a 828 858 10
a 858 828 10
a 828 829 4
a 829 828 4
a 829 859 3
a 859 829 3
a 829 830 5
a 830 829 5
a 830 860 6
a 860 830 6
a 830 831 6
a 831 830 6
a 831 861 1
a 861 831 1
a 831 832 5
a 832 831 5
a 832 862 4
a 862 832 4
a 832 833 3
a 833 832 3
a 833 863 3
a 863 833 3
a 835 865 5
a 865 835 5
a 835 836 8
a 836 835 8
a 836 866 9
a 866 836 9
a 836 837 3
a 837 836 3
a 837 867 3
a 867 837 3
a 837 838 4
a 838 837 4
a 838 839 7
a 839 838 7
a 839 869 1
a 869 839 1
a 839 840 2
a 840 839 2
a 840 870 4
a 870 840 4
a 841 871 6
a 871 841 6
a 841 842 1
a 842 841 1
a 842 872 1
a 872 842 1
a 842 843 3
a 843 842 3
a 843 873 8
a 873 843 8
a 843 844 2
a 844 843 2
a 844 874 9
a 874 844 9
a 844 845 1
a 845 844 1
a 845 875 7
a 875 845 7
a 845 846 6
a 846 845 6
a 846 876 2
a 876 846 2
a 846 847 2
a 847 846 2
a 847 848 1
a 848 847 1
a 848 878 5
a 878 848 5
a 848 849 7
a 849 848 7
a 849 879 3
a 879 849 3
a 849 850 10
a 850 849 10
a 850 880 2
a 880 850 2
a 850 851 6
a 851 850 6
a 851 881 7
a 881 851 7
a 851 852 9
a 852 851 9
a 852 882 9
a 882 852 9
a 852 853 9
a 853 852 9
a 853 883 7
a 883 853 7
a 853 854 4
a 854 853 4
a 854 884 10
a 884 854 10
a 854 855 6
a 855 854 6
a 855 885 4
a 885 855 4
a 855 856 3
a 856 855 3
a 856 886 9
a 886 856 9
a 856 857 1
a 857 856 1
a 857 887 9
a 887 857 9
a 857 858 4
a 858 857 4
a 858 888 1
a 888 858 1
a 858 859 7
a 859 858 7
a 859 889 1
a 889 859 1
a 859 860 3
a 860 859 3
a 860 890 5
a 890 860 5
a 860 861 6
a 861 860 6
a 861 862 2
a 862 861 2
a 862 892 7
a 892 862 7
a 862 863 4
a 863 862 4
a 863 893 2
a 893 863 2
a 863 864 7
a 864 863 7
a 864 894 2
a 894 864 2
a 864 865 4
a 865 864 4
a 865 895 9
a 895 865 9
a 865 866 3
a 866 865 3
a 866 896 9
a 896 866 9
a 866 867 6
a 867 866 6
a 867 897 1
a 897 867 1
a 869 899 6
a 899 869 6
a 869 870 4
a 870 869 4
a 870 900 4
a 900 870 4
a 871 872 7
a 872 871 7
a 872 873 2
a 873 872 2
a 873 874 8
a 874 873 8
a 874 875 8
a 875 874 8
a 875 876 7
a 876 875 7
a 878 879 6
a 879 878 6
a 879 880 5
a 880 879 5
a 880 881 1
a 881 880 1
a 881 882 2
a 882 881 2
a 882 883 7
a 883 882 7
a 883 884 10
a 884 883 10
a 884 885 5
a 885 884 5
a 885 886 4
a 886 885 4
a 886 887 3
a 887 886 3
a 887 888 10
a 888 887 10
a 888 889 7
a 889 888 7
a 889 890 5
a 890 889 5
a 892 893 2
a 893 892 2
a 893 894 8
a 894 893 8
a 894 895 9
a 895 894 9
a 895 896 1
a 896 895 1
a 896 897 2
a 897 896 2
a 897 898 9
a 898 897 9
a 898 899 5
a 899 898 5
a 899 900 10
a 900 899 10
